(set-logic UF)
(declare-sort S1 0)
(declare-sort S2 0)
(declare-sort S3 0)
(declare-sort S4 0)
(declare-sort S5 0)
(declare-sort S6 0)
(declare-sort S7 0)
(declare-sort S8 0)
(declare-sort S9 0)
(declare-sort S10 0)
(declare-sort S11 0)
(declare-fun f1 () S1)
(declare-fun f2 () S1)
(declare-fun f3 (S3 S2) S4)
(declare-fun f4 () S3)
(declare-fun f5 (S5 S6) S4)
(declare-fun f6 (S7 S6) S5)
(declare-fun f7 (S4) S7)
(declare-fun f8 () S3)
(declare-fun f9 () S6)
(declare-fun f10 () S6)
(declare-fun f11 (S3 S8) S1)
(declare-fun f12 () S3)
(declare-fun f13 () S8)
(declare-fun f14 (S9 S4) S1)
(declare-fun f15 (S4 S9) S1)
(declare-fun f16 (S8 S3) S1)
(declare-fun f17 (S10 S6) S9)
(declare-fun f18 (S11 S6) S10)
(declare-fun f19 () S11)
(declare-fun f20 () S6)
(declare-fun f21 (S3) S4)
(assert (not (not (not (forall ((?v6 S2)) (= (= (f11 f12 f13) (f14 (f17 (f18 f19 f20) f10) (f3 f8 ?v6))) (= (f11 f12 f13) (f14 (f17 (f18 f19 f20) f9) (f3 f4 ?v6)))))))))
(assert (not (not (= (= (f11 f12 f13) (f14 (f17 (f18 f19 f20) f10) (f3 f8 (choice ((?v6 S2)) (not (= (= (f11 f12 f13) (f14 (f17 (f18 f19 f20) f10) (f3 f8 ?v6))) (= (f11 f12 f13) (f14 (f17 (f18 f19 f20) f9) (f3 f4 ?v6))))))))) (= (f11 f12 f13) (f14 (f17 (f18 f19 f20) f9) (f3 f4 (choice ((?v6 S2)) (not (= (= (f11 f12 f13) (f14 (f17 (f18 f19 f20) f10) (f3 f8 ?v6))) (= (f11 f12 f13) (f14 (f17 (f18 f19 f20) f9) (f3 f4 ?v6)))))))))))))
(assert (=> (not (forall ((?v6 S2)) (= (= (f11 f12 f13) (f14 (f17 (f18 f19 f20) f10) (f3 f8 ?v6))) (= (f11 f12 f13) (f14 (f17 (f18 f19 f20) f9) (f3 f4 ?v6)))))) (not (= (= (f11 f12 f13) (f14 (f17 (f18 f19 f20) f10) (f3 f8 (choice ((?v6 S2)) (not (= (= (f11 f12 f13) (f14 (f17 (f18 f19 f20) f10) (f3 f8 ?v6))) (= (f11 f12 f13) (f14 (f17 (f18 f19 f20) f9) (f3 f4 ?v6))))))))) (= (f11 f12 f13) (f14 (f17 (f18 f19 f20) f9) (f3 f4 (choice ((?v6 S2)) (not (= (= (f11 f12 f13) (f14 (f17 (f18 f19 f20) f10) (f3 f8 ?v6))) (= (f11 f12 f13) (f14 (f17 (f18 f19 f20) f9) (f3 f4 ?v6)))))))))))))
(check-sat)
(exit)
